statement ok
DROP TABLE IF EXISTS integers

statement ok
CREATE TABLE integers(i INTEGER);

statement ok
INSERT INTO integers VALUES (1), (2), (3), (NULL)

# comparisons involving arithmetic
# these are interesting because these will be folded by optimizers
# so we test if the optimizers work correctly
# addition is unordered (i.e. i+2=2+i)
# i+2=5 => i=3

query BB
SELECT i+2=5, 5=i+2 FROM integers ORDER BY i
----
0 0
0 0
1 1
NULL NULL

# 2+i=5 => i=3

query BB
SELECT 2+i=5, 5=2+i FROM integers ORDER BY i
----
0 0
0 0
1 1
NULL NULL

# multiplication is unordered
# i*2=6 => i=3

query BB
SELECT i*2=6, 6=i*2 FROM integers ORDER BY i
----
0 0
0 0
1 1
NULL NULL

# 2*i=6 => i=3

query BB
SELECT 2*i=6, 6=2*i FROM integers ORDER BY i
----
0 0
0 0
1 1
NULL NULL

# i*2=5 (this comparison is always FALSE, except if i is NULL in which case it is NULL)

query B
SELECT i*2=5 FROM integers ORDER BY i
----
0
0
0
NULL

# i*0=5

query B
SELECT i*0=5 FROM integers ORDER BY i
----
0
0
0
NULL

# -i>-2 => i<2

query B
SELECT -i>-2 FROM integers ORDER BY i
----
1
0
0
NULL

# subtraction is ordered
# i-2=1 => i=3

query BB
SELECT i-2=1, 1=i-2 FROM integers ORDER BY i
----
0 0
0 0
1 1
NULL NULL

# 3-i=1 => i=2

query BB
SELECT 3-i=1, 1=3-i FROM integers ORDER BY i
----
0 0
1 1
0 0
NULL NULL

# non-equality comparisons should also be flipped in this case
# 3-i<2 => i>2

query BB
SELECT 3-i<2, 2>3-i FROM integers ORDER BY i
----
0 0
1 1
1 1
NULL NULL

query BB
SELECT 3-i<=1, 1>=3-i FROM integers ORDER BY i
----
0 0
1 1
1 1
NULL NULL

# division is ordered
# i/2=1 => i>=2 or i<=3

query BB
SELECT i//2=1, 1=i//2 FROM integers ORDER BY i
----
0 0
1 1
1 1
NULL NULL

# 2/i=1 => i=2

query BB
SELECT 2/i=1, 1=2/i FROM integers ORDER BY i
----
0 0
1 1
0 0
NULL NULL

# 3/i=2 => i=2

query BB
SELECT 2/i=1, 1=2/i FROM integers ORDER BY i
----
0 0
1 1
0 0
NULL NULL
