# TODO: unsupported feature
# query II
# explain SELECT * FROM test ORDER BY j DESC LIMIT 2;
# ----
# TODO: special result marker

# TODO: unsupported feature
# query IIII
# SELECT * FROM test ORDER BY j DESC LIMIT 2;
# ----
# 9	10	11	-9
# 8	9	10	-8

# TODO: unsupported feature
# query II
# explain SELECT * FROM test ORDER BY j, i LIMIT 2;
# ----
# TODO: special result marker

# TODO: unsupported feature
# query IIII
# SELECT * FROM test ORDER BY j, i LIMIT 2;
# ----
# 0	1	2	0
# 1	2	3	-1

# this does not, we cannot remove any columns by turning it into a row-id join

# TODO: unsupported feature
# query II
# explain SELECT i FROM test ORDER BY i LIMIT 2;
# ----
# logical_opt	<!REGEX>:.*COMPARISON_JOIN.*

# we cannot do this with volatile expressions

# TODO: unsupported feature
# query II
# explain SELECT * FROM (SELECT i + random() AS i, j, k, l FROM test) ORDER BY i LIMIT 2;
# ----
# logical_opt	<!REGEX>:.*COMPARISON_JOIN.*

# top-n with expressions

# TODO: unsupported feature
# query IIII
# SELECT * FROM (SELECT -i i, -j j, -k k, -l l FROM test) ORDER BY -j DESC LIMIT 2
# ----
# -9	-10	-11	9
# -8	-9	-10	8

# multiple layers

# TODO: unsupported feature
# query IIII
# SELECT * FROM (SELECT 100 + i i, 1000 + j j, 10000 + k k, 100000 + l l FROM (SELECT -i i, -j j, -k k, -l l FROM test)) ORDER BY j DESC LIMIT 2
# ----
# 100	999	9998	100000
# 99	998	9997	100001

# limit + offset

query T
explain SELECT * FROM test LIMIT 2 OFFSET 2;
----
Limit
├── output columns: [test.a (#0), test.b (#1)]
├── limit: 2
├── offset: 2
├── estimated rows: 2.00
└── TableScan
    ├── table: default.default.test
    ├── scan id: 0
    ├── output columns: [a (#0), b (#1)]
    ├── read rows: 10
    ├── read size: < 1 KiB
    ├── partitions total: 1
    ├── partitions scanned: 1
    ├── pruning stats: [segments: <range pruning: 1 to 1 cost: 1 ms>, blocks: <range pruning: 1 to 1 cost: 1 ms>]
    ├── push downs: [filters: [], limit: 4]
    └── estimated rows: 10.00

query II
SELECT * FROM test LIMIT 2 OFFSET 2;
----
2 0
3 1

# sample

query II
explain SELECT * FROM test USING SAMPLE 2 ROWS
----
# TODO: special result marker

# we can only use joins when we are sampling rows

query II
explain SELECT * FROM test USING SAMPLE 10%
----
logical_opt	<!REGEX>:.*COMPARISON_JOIN.*

# order on expression

query IIII
SELECT * FROM test ORDER BY -j DESC LIMIT 2
----
0	1	2	0
1	2	3	-1

# projection in subquery

query IIII
SELECT * FROM (SELECT -i i, -j j, -k k, -l l FROM test) ORDER BY -j DESC LIMIT 2
----
-9	-10	-11	9
-8	-9	-10	8

# filter after top-n

query IIII
SELECT * FROM (
	SELECT * FROM test ORDER BY j DESC LIMIT 2
) WHERE i=8
----
8	9	10	-8

query I
SELECT l FROM (
	SELECT * FROM test ORDER BY j DESC LIMIT 2
) WHERE k=10
----
-8

# now with varchar columns

query IIII
SELECT * FROM test ORDER BY j DESC LIMIT 2;
----
9	10	11	-9
8	09	10	-8

query IIII
SELECT j, k, l, i FROM test WHERE i > 5 ORDER BY j DESC LIMIT 2;
----
10	11	-9	9
09	10	-8	8
